RAW/D/fspd-mid/SCA8-7.vrpspd_seed-0.out
1051.2786	39.576	91.075
