RAW/D/fspd-mid/SCA8-7.vrpspd_seed-0.sol
Route #1: 28 5 16 40
Route #2: 20 50 33 31 46 1 29
Route #3: 42 2 49 43 26
Route #4: 25 11 14 12 4 3
Route #5: 24 13 15 8 45
Route #6: 27 22 37 30 44 38 47
Route #7: 9 36 6 32
Route #8: 17 23 10 39 35 21 18
Route #9: 34 19 7 41 48
Cost 10512786.000000